Set parameter Username
Set parameter LogFile to value "gurobi.log"
Academic license - for non-commercial use only - expires 2024-05-02
Using license file /Users/sissi/gurobi.lic

Gurobi Optimizer version 10.0.1 build v10.0.1rc0 (mac64[arm])
Copyright (c) 2023, Gurobi Optimization, LLC

Read OPB format model from file pbo/p_pbo_0_36870.opb
Reading time = 0.01 seconds
(null): 2001 rows, 1057 columns, 5969 nonzeros

CPU model: Apple M2
Thread count: 8 physical cores, 8 logical processors, using up to 8 threads

Optimize a model with 2001 rows, 1057 columns and 5969 nonzeros
Model fingerprint: 0x27e0b57e
Variable types: 0 continuous, 1057 integer (1057 binary)
Coefficient statistics:
  Matrix range     [1e+00, 1e+00]
  Objective range  [1e+00, 4e+00]
  Bounds range     [1e+00, 1e+00]
  RHS range        [1e+00, 1e+00]
Found heuristic solution: objective -363.0000000
Presolve removed 881 rows and 449 columns
Presolve time: 0.01s
Presolved: 1120 rows, 608 columns, 3360 nonzeros
Variable types: 0 continuous, 608 integer (608 binary)

Root relaxation: objective -6.600000e+02, 122 iterations, 0.00 seconds (0.00 work units)

    Nodes    |    Current Node    |     Objective Bounds      |     Work
 Expl Unexpl |  Obj  Depth IntInf | Incumbent    BestBd   Gap | It/Node Time

     0     0 -660.00000    0   48 -363.00000 -660.00000  81.8%     -    0s
     0     0 -435.63256    0  600 -363.00000 -435.63256  20.0%     -    1s
     0     0 -415.29852    0  601 -363.00000 -415.29852  14.4%     -    1s
     0     0 -413.85063    0  602 -363.00000 -413.85063  14.0%     -    1s
     0     0 -413.18361    0  601 -363.00000 -413.18361  13.8%     -    1s
     0     0 -412.99510    0  603 -363.00000 -412.99510  13.8%     -    1s
     0     0 -406.25481    0  601 -363.00000 -406.25481  11.9%     -    2s
     0     0 -405.39093    0  601 -363.00000 -405.39093  11.7%     -    2s
     0     0 -405.21229    0  602 -363.00000 -405.21229  11.6%     -    2s
     0     0 -403.15291    0  604 -363.00000 -403.15291  11.1%     -    2s
     0     0 -402.59652    0  604 -363.00000 -402.59652  10.9%     -    2s
     0     0 -402.40681    0  605 -363.00000 -402.40681  10.9%     -    2s
H    0     0                    -395.0000000 -402.40681  1.88%     -    2s
     0     0 -401.71882    0  606 -395.00000 -401.71882  1.70%     -    2s
     0     0 -401.71882    0  606 -395.00000 -401.71882  1.70%     -    2s
     0     2 -401.71882    0  606 -395.00000 -401.71882  1.70%     -    2s

Cutting planes:
  MIR: 126
  StrongCG: 1
  RLT: 111

Explored 19 nodes (13453 simplex iterations) in 2.83 seconds (2.52 work units)
Thread count was 8 (of 8 available processors)

Solution count 2: -395 -363 
No other solutions better than -395

Optimal solution found (tolerance 1.00e-04)
Best objective -3.950000000000e+02, best bound -3.950000000000e+02, gap 0.0000%

Wrote result file 'solution/p_0_36870.sol'

